NAME          COPTPROB
OBJSENSE
  MIN
ROWS
 N  __OBJ___
 L  C1      
 L  C9      
 L  C15     
 L  C22     
 L  C57     
 L  C58     
 L  C67     
 L  C74     
 L  C82     
 L  C107    
 L  C127    
 L  C133    
 L  C144    
COLUMNS
    MARKER    'MARKER'                 'INTORG'
    x60       __OBJ___  168
    x60       C58       -1
    x60       C74       -1
    x163      __OBJ___  95
    x163      C67       -1
    x163      C107      -1
    x322      __OBJ___  74
    x322      C1        -1
    x322      C67       -1
    x323      __OBJ___  116
    x323      C15       -1
    x323      C144      -1
    x378      __OBJ___  60
    x378      C1        -1
    x378      C15       -1
    x406      __OBJ___  25
    x406      C74       -1
    x406      C133      -1
    x532      __OBJ___  5
    x532      C9        -1
    x532      C82       -1
    x584      __OBJ___  235
    x584      C58       -1
    x584      C144      -1
    x586      __OBJ___  22
    x586      C127      -1
    x586      C133      -1
    x589      __OBJ___  41
    x589      C9        -1
    x589      C22       -1
    x657      __OBJ___  136
    x657      C22       -1
    x657      C57       -1
    x735      __OBJ___  44
    x735      C82       -1
    x735      C107      -1
    x780      __OBJ___  98
    x780      C57       -1
    x780      C127      -1
    MARKER    'MARKER'                 'INTEND'
RHS
    RHS       __OBJ___  -16406
    RHS       C1        -1
    RHS       C9        -1
    RHS       C15       -1
    RHS       C22       -1
    RHS       C57       -1
    RHS       C58       -1
    RHS       C67       -1
    RHS       C74       -1
    RHS       C82       -1
    RHS       C107      -1
    RHS       C127      -1
    RHS       C133      -1
    RHS       C144      -1
BOUNDS
 UP BOUND     x60       1
 UP BOUND     x163      1
 UP BOUND     x322      1
 UP BOUND     x323      1
 UP BOUND     x378      1
 UP BOUND     x406      1
 UP BOUND     x532      1
 UP BOUND     x584      1
 UP BOUND     x586      1
 UP BOUND     x589      1
 UP BOUND     x657      1
 UP BOUND     x735      1
 UP BOUND     x780      1
ENDATA
